peakDumbCharging = 11100; 
Machine = anon_enum(16); 
machineSpeed = [3700,3700,3700,3700,3700,3700,3700,3700,3700,3700,3700,3700,3700,3700,3700,3700]; 
machineLoad = [3700,3700,3700,3700,3700,3700,3700,3700,3700,3700,3700,3700,3700,3700,3700,3700]; 
Car = anon_enum(9); 
demandCar = [3520,18640,33760,10920,840,17360,3480,7840,5040]; 
arrivalCar = [76,71,69,68,66,51,50,44,44]; 
departureCar = [79,79,86,74,67,59,52,47,46]; 
